NAME          ClpDefau  FREE
ROWS
 N  OBJROW
 L  ZMUNI1_PCT
 L  ZMUNI2_PCT
 L  ZMUNI3_PCT
 L  ZMUNI4_PCT
 L  ZMUNI5_PCT
 L  ZMUNI6_PCT
 L  ZMUNI7_PCT
 L  ZMUNI8_PCT
 L  ZMUNI9_PCT
COLUMNS
    QMUNI1 OBJROW 1.          
    QMUNI1 ZMUNI1_PCT 28389.1678  
    QMUNI1 ZMUNI2_PCT 1800.9185   
    QMUNI1 ZMUNI3_PCT 4240.9897   
    QMUNI1 ZMUNI4_PCT 3034.943342 
    QMUNI1 ZMUNI5_PCT  -148.3918  
    QMUNI1 ZMUNI6_PCT 109.1004    
    QMUNI1 ZMUNI7_PCT 1721.9543   
    QMUNI1 ZMUNI8_PCT 1401.5197   
    QMUNI1 ZMUNI9_PCT 547.0276    
    QMUNI2 OBJROW 1.          
    QMUNI2 ZMUNI1_PCT 1625.7286   
    QMUNI2 ZMUNI2_PCT 33278.7513  
    QMUNI2 ZMUNI3_PCT 2440.6434   
    QMUNI2 ZMUNI4_PCT 2553.340792 
    QMUNI2 ZMUNI5_PCT  -152.1111  
    QMUNI2 ZMUNI6_PCT  -53.8826   
    QMUNI2 ZMUNI7_PCT 764.8468    
    QMUNI2 ZMUNI8_PCT 947.1893    
    QMUNI2 ZMUNI9_PCT 704.3839    
    QMUNI3 OBJROW 1.          
    QMUNI3 ZMUNI1_PCT 4305.9349   
    QMUNI3 ZMUNI2_PCT 2752.6855   
    QMUNI3 ZMUNI3_PCT 29980.8503  
    QMUNI3 ZMUNI4_PCT 5122.695863 
    QMUNI3 ZMUNI5_PCT 141.716     
    QMUNI3 ZMUNI6_PCT 300.5028    
    QMUNI3 ZMUNI7_PCT 1653.4805   
    QMUNI3 ZMUNI8_PCT 1596.0693   
    QMUNI3 ZMUNI9_PCT 931.9306    
    QMUNI4 OBJROW 1.          
    QMUNI4 ZMUNI1_PCT 3184.7      
    QMUNI4 ZMUNI2_PCT 2880.0964   
    QMUNI4 ZMUNI3_PCT 5367.0884   
    QMUNI4 ZMUNI4_PCT 102044.69561
    QMUNI4 ZMUNI5_PCT  -58.3649   
    QMUNI4 ZMUNI6_PCT 64.1823     
    QMUNI4 ZMUNI7_PCT 1047.7066   
    QMUNI4 ZMUNI8_PCT 1000.4043   
    QMUNI4 ZMUNI9_PCT 356.8649    
    QMUNI5 OBJROW 1.          
    QMUNI5 ZMUNI1_PCT 135.6125    
    QMUNI5 ZMUNI2_PCT 21.1715     
    QMUNI5 ZMUNI3_PCT 93.0787     
    QMUNI5 ZMUNI4_PCT 57.730078   
    QMUNI5 ZMUNI5_PCT 33179.5692  
    QMUNI5 ZMUNI6_PCT 2551.8417   
    QMUNI5 ZMUNI7_PCT 197.4106    
    QMUNI5 ZMUNI8_PCT 56.076      
    QMUNI5 ZMUNI9_PCT  -105.0949  
    QMUNI6 OBJROW 1.          
    QMUNI6 ZMUNI1_PCT 326.6334    
    QMUNI6 ZMUNI2_PCT 123.5962    
    QMUNI6 ZMUNI3_PCT 251.5793    
    QMUNI6 ZMUNI4_PCT 185.017287  
    QMUNI6 ZMUNI5_PCT 2544.403    
    QMUNI6 ZMUNI6_PCT 31489.3723  
    QMUNI6 ZMUNI7_PCT 464.2486    
    QMUNI6 ZMUNI8_PCT 222.2061    
    QMUNI6 ZMUNI9_PCT 7.8200999997
    QMUNI7 OBJROW 1.          
    QMUNI7 ZMUNI1_PCT 2093.4105   
    QMUNI7 ZMUNI2_PCT 1432.2281   
    QMUNI7 ZMUNI3_PCT 1908.6838   
    QMUNI7 ZMUNI4_PCT 1488.84952  
    QMUNI7 ZMUNI5_PCT 918.9605    
    QMUNI7 ZMUNI6_PCT 1199.3408   
    QMUNI7 ZMUNI7_PCT 29717.8268  
    QMUNI7 ZMUNI8_PCT 3438.1866   
    QMUNI7 ZMUNI9_PCT 1771.1639   
    QMUNI8 OBJROW 1.          
    QMUNI8 ZMUNI1_PCT 1372.3373   
    QMUNI8 ZMUNI2_PCT 1133.8234   
    QMUNI8 ZMUNI3_PCT 1384.1629   
    QMUNI8 ZMUNI4_PCT 1082.153618 
    QMUNI8 ZMUNI5_PCT 276.184     
    QMUNI8 ZMUNI6_PCT 438.118     
    QMUNI8 ZMUNI7_PCT 2669.9066   
    QMUNI8 ZMUNI8_PCT 27378.6544  
    QMUNI8 ZMUNI9_PCT 1328.6591   
    QMUNI9 OBJROW 1.          
    QMUNI9 ZMUNI1_PCT 736.7134    
    QMUNI9 ZMUNI2_PCT 960.9222    
    QMUNI9 ZMUNI3_PCT 806.8085    
    QMUNI9 ZMUNI4_PCT 678.497553  
    QMUNI9 ZMUNI5_PCT 474.5483    
    QMUNI9 ZMUNI6_PCT 535.0113    
    QMUNI9 ZMUNI7_PCT 1232.7194   
    QMUNI9 ZMUNI8_PCT 1630.9738   
    QMUNI9 ZMUNI9_PCT 25588.4171  
RHS
    RHS ZMUNI1_PCT 3.2864540073
    RHS ZMUNI2_PCT 1.6652392835
    RHS ZMUNI3_PCT 1.0241325291
    RHS ZMUNI4_PCT  -1.69472812
    RHS ZMUNI5_PCT 0.8662241019
    RHS ZMUNI6_PCT 1.9260861622
    RHS ZMUNI7_PCT  -0.89022316
    RHS ZMUNI8_PCT  -0.50351544
    RHS ZMUNI9_PCT 0.2450064853
BOUNDS
 LO BOUND QMUNI1 -0.000976126
 UP BOUND QMUNI1      1.1e+10
 LO BOUND QMUNI2 -0.000714436
 UP BOUND QMUNI2      1.1e+10
 LO BOUND QMUNI3 -0.000749472
 UP BOUND QMUNI3      1.1e+10
 LO BOUND QMUNI4 -0.00033221 
 UP BOUND QMUNI4      1.1e+10
 LO BOUND QMUNI5 -0.000581141
 UP BOUND QMUNI5      1.1e+10
 LO BOUND QMUNI6 -0.000724603
 UP BOUND QMUNI6      1.1e+10
 LO BOUND QMUNI7 -0.000405525
 UP BOUND QMUNI7      1.1e+10
 LO BOUND QMUNI8 -0.000523155
 UP BOUND QMUNI8      1.1e+10
 LO BOUND QMUNI9 -0.000618329
 UP BOUND QMUNI9      1.1e+10
ENDATA
